unsat
(:binary-propagations  8
 :conflicts            1
 :final-checks         1
 :max-generation       1
 :max-memory           24.38
 :memory               21.19
 :mk-bool-var          1332
 :mk-clause            449
 :mk-clause-binary     1500
 :num-allocs           14695126
 :num-checks           1
 :propagations         8
 :quant-instantiations 198
 :restarts             1
 :rlimit-count         154685
 :time                 0.04)
